Problem:    SpedizioneUrgente
Rows:       22
Columns:    28 (24 integer, 24 binary)
Non-zeros:  108
Status:     INTEGER OPTIMAL
Objective:  y = 10000 (MINimum)

   No.   Row name        Activity     Lower bound   Upper bound
------ ------------    ------------- ------------- -------------
     1 assegnazione[1]
                                   1                           1 
     2 assegnazione[2]
                                   1                           1 
     3 assegnazione[3]
                                   1                           1 
     4 assegnazione[4]
                                   1                           1 
     5 assegnazione[5]
                                   1                           1 
     6 assegnazione[6]
                                   1                           1 
     7 assegnazione[7]
                                   1                           1 
     8 assegnazione[8]
                                   1                           1 
     9 assegnazione[9]
                                   0                           1 
    10 assegnazione[10]
                                   1                           1 
    11 assegnazione[11]
                                   1                           1 
    12 assegnazione[12]
                                   1                           1 
    13 def_pesoTot[1]
                                   0            -0             = 
    14 def_pesoTot[2]
                                   0            -0             = 
    15 def_volTot[1]
                                   0            -0             = 
    16 def_volTot[2]
                                   0            -0             = 
    17 pesoMassimo[1]
                                2465                        2900 
    18 pesoMassimo[2]
                                1935                        1950 
    19 volumeMassimo[1]
                                  89                          90 
    20 volumeMassimo[2]
                                  71                         100 
    21 y                     -110000                             
    22 z                       29786                             

   No. Column name       Activity     Lower bound   Upper bound
------ ------------    ------------- ------------- -------------
     1 x[1,1]       *              1             0             1 
     2 x[1,2]       *              0             0             1 
     3 x[2,1]       *              1             0             1 
     4 x[2,2]       *              0             0             1 
     5 x[3,1]       *              1             0             1 
     6 x[3,2]       *              0             0             1 
     7 x[4,1]       *              0             0             1 
     8 x[4,2]       *              1             0             1 
     9 x[5,1]       *              1             0             1 
    10 x[5,2]       *              0             0             1 
    11 x[6,1]       *              0             0             1 
    12 x[6,2]       *              1             0             1 
    13 x[7,1]       *              1             0             1 
    14 x[7,2]       *              0             0             1 
    15 x[8,1]       *              0             0             1 
    16 x[8,2]       *              1             0             1 
    17 x[9,1]       *              0             0             1 
    18 x[9,2]       *              0             0             1 
    19 x[10,1]      *              1             0             1 
    20 x[10,2]      *              0             0             1 
    21 x[11,1]      *              1             0             1 
    22 x[11,2]      *              0             0             1 
    23 x[12,1]      *              1             0             1 
    24 x[12,2]      *              0             0             1 
    25 pesoTot[1]               2465             0               
    26 pesoTot[2]               1935             0               
    27 volumeTot[1]               89             0               
    28 volumeTot[2]               71             0               

Integer feasibility conditions:

KKT.PE: max.abs.err = 0.00e+000 on row 0
        max.rel.err = 0.00e+000 on row 0
        High quality

KKT.PB: max.abs.err = 0.00e+000 on row 0
        max.rel.err = 0.00e+000 on row 0
        High quality

End of output
